data;
param n:=100;
param w:=1 -490 2 -358 3 -354 4 451 5 273 6 154 7 -385 8 88 9 -12 10 348 11 171 12 -95 13 261 14 -441 15 213 16 284 17 142 18 -50 19 -392 20 -13 21 -170 22 -190 23 -383 24 -488 25 -359 26 -401 27 232 28 -201 29 -184 30 229 31 141 32 -476 33 -475 34 -188 35 217 36 -53 37 349 38 318 39 377 40 346 41 169 42 -493 43 380 44 228 45 224 46 256 47 234 48 -133 49 485 50 224 51 -336 52 -195 53 109 54 372 55 -136 56 -148 57 190 58 -358 59 -389 60 -269 61 -413 62 -398 63 -492 64 140 65 371 66 345 67 380 68 -270 69 -448 70 427 71 66 72 460 73 446 74 -3 75 364 76 -254 77 215 78 220 79 -116 80 418 81 287 82 137 83 308 84 313 85 280 86 -375 87 31 88 -234 89 -194 90 -355 91 -424 92 434 93 -395 94 45 95 -46 96 336 97 -172 98 102 99 -155 100 -231;
